c graph colorability of graph:
c .
c
c Generated with `cnfgen`
c (C) 2012-2019 Massimo Lauria <massimo.lauria@uniroma1.it>
c https://massimolauria.net/cnfgen
c
c COMMAND LINE: cnfgen --seed 1 -o ./kcolor/kcolor.grid5.s1.k4.cnf kcolor --grid 5 5 --savegraph ./kcolor/kcolor.grid5.s1.graph --graphformat dot 4
c
p cnf 100 335
1 2 3 4 0
-1 -2 0
-1 -3 0
-1 -4 0
-2 -3 0
-2 -4 0
-3 -4 0
5 6 7 8 0
-5 -6 0
-5 -7 0
-5 -8 0
-6 -7 0
-6 -8 0
-7 -8 0
9 10 11 12 0
-9 -10 0
-9 -11 0
-9 -12 0
-10 -11 0
-10 -12 0
-11 -12 0
13 14 15 16 0
-13 -14 0
-13 -15 0
-13 -16 0
-14 -15 0
-14 -16 0
-15 -16 0
17 18 19 20 0
-17 -18 0
-17 -19 0
-17 -20 0
-18 -19 0
-18 -20 0
-19 -20 0
21 22 23 24 0
-21 -22 0
-21 -23 0
-21 -24 0
-22 -23 0
-22 -24 0
-23 -24 0
25 26 27 28 0
-25 -26 0
-25 -27 0
-25 -28 0
-26 -27 0
-26 -28 0
-27 -28 0
29 30 31 32 0
-29 -30 0
-29 -31 0
-29 -32 0
-30 -31 0
-30 -32 0
-31 -32 0
33 34 35 36 0
-33 -34 0
-33 -35 0
-33 -36 0
-34 -35 0
-34 -36 0
-35 -36 0
37 38 39 40 0
-37 -38 0
-37 -39 0
-37 -40 0
-38 -39 0
-38 -40 0
-39 -40 0
41 42 43 44 0
-41 -42 0
-41 -43 0
-41 -44 0
-42 -43 0
-42 -44 0
-43 -44 0
45 46 47 48 0
-45 -46 0
-45 -47 0
-45 -48 0
-46 -47 0
-46 -48 0
-47 -48 0
49 50 51 52 0
-49 -50 0
-49 -51 0
-49 -52 0
-50 -51 0
-50 -52 0
-51 -52 0
53 54 55 56 0
-53 -54 0
-53 -55 0
-53 -56 0
-54 -55 0
-54 -56 0
-55 -56 0
57 58 59 60 0
-57 -58 0
-57 -59 0
-57 -60 0
-58 -59 0
-58 -60 0
-59 -60 0
61 62 63 64 0
-61 -62 0
-61 -63 0
-61 -64 0
-62 -63 0
-62 -64 0
-63 -64 0
65 66 67 68 0
-65 -66 0
-65 -67 0
-65 -68 0
-66 -67 0
-66 -68 0
-67 -68 0
69 70 71 72 0
-69 -70 0
-69 -71 0
-69 -72 0
-70 -71 0
-70 -72 0
-71 -72 0
73 74 75 76 0
-73 -74 0
-73 -75 0
-73 -76 0
-74 -75 0
-74 -76 0
-75 -76 0
77 78 79 80 0
-77 -78 0
-77 -79 0
-77 -80 0
-78 -79 0
-78 -80 0
-79 -80 0
81 82 83 84 0
-81 -82 0
-81 -83 0
-81 -84 0
-82 -83 0
-82 -84 0
-83 -84 0
85 86 87 88 0
-85 -86 0
-85 -87 0
-85 -88 0
-86 -87 0
-86 -88 0
-87 -88 0
89 90 91 92 0
-89 -90 0
-89 -91 0
-89 -92 0
-90 -91 0
-90 -92 0
-91 -92 0
93 94 95 96 0
-93 -94 0
-93 -95 0
-93 -96 0
-94 -95 0
-94 -96 0
-95 -96 0
97 98 99 100 0
-97 -98 0
-97 -99 0
-97 -100 0
-98 -99 0
-98 -100 0
-99 -100 0
-1 -5 0
-2 -6 0
-3 -7 0
-4 -8 0
-1 -21 0
-2 -22 0
-3 -23 0
-4 -24 0
-5 -9 0
-6 -10 0
-7 -11 0
-8 -12 0
-5 -25 0
-6 -26 0
-7 -27 0
-8 -28 0
-9 -13 0
-10 -14 0
-11 -15 0
-12 -16 0
-9 -29 0
-10 -30 0
-11 -31 0
-12 -32 0
-13 -17 0
-14 -18 0
-15 -19 0
-16 -20 0
-13 -33 0
-14 -34 0
-15 -35 0
-16 -36 0
-17 -37 0
-18 -38 0
-19 -39 0
-20 -40 0
-21 -25 0
-22 -26 0
-23 -27 0
-24 -28 0
-21 -41 0
-22 -42 0
-23 -43 0
-24 -44 0
-25 -29 0
-26 -30 0
-27 -31 0
-28 -32 0
-25 -45 0
-26 -46 0
-27 -47 0
-28 -48 0
-29 -33 0
-30 -34 0
-31 -35 0
-32 -36 0
-29 -49 0
-30 -50 0
-31 -51 0
-32 -52 0
-33 -37 0
-34 -38 0
-35 -39 0
-36 -40 0
-33 -53 0
-34 -54 0
-35 -55 0
-36 -56 0
-37 -57 0
-38 -58 0
-39 -59 0
-40 -60 0
-41 -45 0
-42 -46 0
-43 -47 0
-44 -48 0
-41 -61 0
-42 -62 0
-43 -63 0
-44 -64 0
-45 -49 0
-46 -50 0
-47 -51 0
-48 -52 0
-45 -65 0
-46 -66 0
-47 -67 0
-48 -68 0
-49 -53 0
-50 -54 0
-51 -55 0
-52 -56 0
-49 -69 0
-50 -70 0
-51 -71 0
-52 -72 0
-53 -57 0
-54 -58 0
-55 -59 0
-56 -60 0
-53 -73 0
-54 -74 0
-55 -75 0
-56 -76 0
-57 -77 0
-58 -78 0
-59 -79 0
-60 -80 0
-61 -65 0
-62 -66 0
-63 -67 0
-64 -68 0
-61 -81 0
-62 -82 0
-63 -83 0
-64 -84 0
-65 -69 0
-66 -70 0
-67 -71 0
-68 -72 0
-65 -85 0
-66 -86 0
-67 -87 0
-68 -88 0
-69 -73 0
-70 -74 0
-71 -75 0
-72 -76 0
-69 -89 0
-70 -90 0
-71 -91 0
-72 -92 0
-73 -77 0
-74 -78 0
-75 -79 0
-76 -80 0
-73 -93 0
-74 -94 0
-75 -95 0
-76 -96 0
-77 -97 0
-78 -98 0
-79 -99 0
-80 -100 0
-81 -85 0
-82 -86 0
-83 -87 0
-84 -88 0
-85 -89 0
-86 -90 0
-87 -91 0
-88 -92 0
-89 -93 0
-90 -94 0
-91 -95 0
-92 -96 0
-93 -97 0
-94 -98 0
-95 -99 0
-96 -100 0
